(set-info :smt-lib-version 2.6)
(set-logic QF_S)
(set-info :source |
Generated by: Murphy Berzish, Mitja Kulczynski, Federico Mora, Florin Manea, Joel Day, Dirk Nowotka, Vijay Ganesh, Zhengyang Lu
Generated on: 2020-10-01
Description: Translated from a collection of real-world regex queries, AutomataArk, collected by Loris D’Antoni and Fang Wang: https://github.com/lorisdanto/automatark
Application: Evaluate solvers on real-world regex queries
Target solver: Z3str3RE, CVC4, OSTRICH, Z3seq, Z3str3, Z3-Trau
Publications: Berzish, M., Kulczynski, M., Mora, F., Manea, F., Day, J. D., Nowotka, D., & Ganesh, V. (2021, July). An SMT solver for regular expressions and linear arithmetic over string length. In CAV 2021.
|)
(set-info :license "https://creativecommons.org/licenses/by/4.0/")
(set-info :category "industrial")
(set-info :status sat)

(declare-const X String)
(assert (not (str.in_re X (re.union (re.++ (re.union (re.++ (str.to_re "4") ((_ re.loop 3 3) (re.range "0" "9"))) (re.++ (str.to_re "5") (re.range "1" "5") ((_ re.loop 2 2) (re.range "0" "9"))) (str.to_re "6011")) (re.opt (str.to_re "-")) ((_ re.loop 4 4) (re.range "0" "9")) (re.opt (str.to_re "-")) ((_ re.loop 4 4) (re.range "0" "9")) (re.opt (str.to_re "-")) ((_ re.loop 4 4) (re.range "0" "9"))) (re.++ (str.to_re "3") (re.union (str.to_re "4") (str.to_re ",") (str.to_re "7")) ((_ re.loop 13 13) (re.range "0" "9")) (str.to_re "\u{a}"))))))
(assert (not (str.in_re X (re.++ (str.to_re "Travel") (re.+ (re.union (str.to_re " ") (str.to_re "\u{9}") (str.to_re "\u{a}") (str.to_re "\u{c}") (str.to_re "\u{d}"))) (str.to_re "version") (re.+ (re.union (str.to_re " ") (str.to_re "\u{9}") (str.to_re "\u{a}") (str.to_re "\u{c}") (str.to_re "\u{d}"))) (str.to_re "lnzzlnbk/pkrm.finFILESIZE>\u{13}M1User-Agent:Agentwww.weepee.com\u{1b}OnlineM1Host:\u{a}")))))
(assert (not (str.in_re X (re.++ (str.to_re "/USER ") (re.union (str.to_re "XP") (str.to_re "98") (str.to_re "95") (str.to_re "NT") (str.to_re "ME") (str.to_re "WIN") (str.to_re "2K3")) (str.to_re "-") (re.+ (re.range "0" "9")) (str.to_re " * 0 :/mi\u{a}")))))
(check-sat)

(exit)
